(set-info :smt-lib-version 2.6)
(set-logic QF_ALIA)
(set-info :source |
Benchmarks from Leonardo de Moura <demoura@csl.sri.com>

This benchmark was automatically translated into SMT-LIB format from
CVC format using CVC Lite
|)
(set-info :category "industrial")
(set-info :status sat)
(declare-fun x_0 () Int)
(declare-fun x_1 () Int)
(declare-fun x_2 () Int)
(declare-fun x_3 () Int)
(declare-fun x_4 () (Array Int Int))
(declare-fun x_5 () Int)
(declare-fun x_6 () Int)
(declare-fun x_7 () Int)
(declare-fun x_8 () Int)
(declare-fun x_9 () Int)
(declare-fun x_10 () (Array Int Int))
(declare-fun x_11 () (Array Int Int))
(declare-fun x_12 () Int)
(declare-fun x_13 () Int)
(declare-fun x_14 () Int)
(declare-fun x_15 () Int)
(declare-fun x_16 () (Array Int Int))
(declare-fun x_17 () Int)
(declare-fun x_18 () Int)
(declare-fun x_19 () Int)
(declare-fun x_20 () Int)
(declare-fun x_21 () Int)
(declare-fun x_22 () Int)
(declare-fun x_23 () Int)
(declare-fun x_24 () (Array Int Int))
(declare-fun x_25 () Int)
(declare-fun x_26 () Int)
(declare-fun x_27 () Int)
(declare-fun x_28 () (Array Int Int))
(declare-fun x_29 () Int)
(declare-fun x_30 () Int)
(declare-fun x_31 () Int)
(declare-fun x_32 () Int)
(declare-fun x_33 () Int)
(declare-fun x_34 () Int)
(declare-fun x_35 () (Array Int Int))
(declare-fun x_36 () Int)
(declare-fun x_37 () Int)
(declare-fun x_38 () Int)
(declare-fun x_39 () (Array Int Int))
(declare-fun x_40 () Int)
(declare-fun x_41 () Int)
(declare-fun x_42 () Int)
(declare-fun x_43 () Int)
(declare-fun x_44 () Int)
(declare-fun x_45 () Int)
(declare-fun x_46 () (Array Int Int))
(declare-fun x_47 () Int)
(declare-fun x_48 () Int)
(declare-fun x_49 () Int)
(declare-fun x_50 () (Array Int Int))
(declare-fun x_51 () Int)
(declare-fun x_52 () Int)
(declare-fun x_53 () Int)
(declare-fun x_54 () Int)
(declare-fun x_55 () Int)
(declare-fun x_56 () Int)
(declare-fun x_57 () (Array Int Int))
(declare-fun x_58 () Int)
(declare-fun x_59 () Int)
(declare-fun x_60 () Int)
(declare-fun x_61 () (Array Int Int))
(declare-fun x_62 () Int)
(declare-fun x_63 () Int)
(declare-fun x_64 () Int)
(declare-fun x_65 () Int)
(declare-fun x_66 () Int)
(declare-fun x_67 () Int)
(declare-fun x_68 () Int)
(assert (let ((?v_35 (= x_6 (+ x_0 1))) (?v_41 (= x_9 x_2)) (?v_37 (= x_10 x_11)) (?v_36 (= x_12 x_13)) (?v_38 (= x_14 x_1)) (?v_39 (= x_15 x_3)) (?v_42 (= x_16 x_4)) (?v_40 (= x_17 x_18)) (?v_26 (= x_21 (+ x_6 1))) (?v_32 (= x_23 x_9)) (?v_28 (= x_24 x_10)) (?v_27 (= x_25 x_12)) (?v_29 (= x_26 x_14)) (?v_30 (= x_27 x_15)) (?v_33 (= x_28 x_16)) (?v_31 (= x_29 x_17)) (?v_18 (= x_32 (+ x_21 1))) (?v_24 (= x_34 x_23)) (?v_20 (= x_35 x_24)) (?v_19 (= x_36 x_25)) (?v_21 (= x_37 x_26)) (?v_22 (= x_38 x_27)) (?v_25 (= x_39 x_28)) (?v_23 (= x_40 x_29)) (?v_9 (= x_43 (+ x_32 1))) (?v_16 (= x_45 x_34)) (?v_12 (= x_46 x_35)) (?v_10 (= x_47 x_36)) (?v_13 (= x_48 x_37)) (?v_14 (= x_49 x_38)) (?v_17 (= x_50 x_39)) (?v_15 (= x_51 x_40)) (?v_1 (= x_54 (+ x_43 1))) (?v_7 (= x_56 x_45)) (?v_3 (= x_57 x_46)) (?v_2 (= x_58 x_47)) (?v_4 (= x_59 x_48)) (?v_5 (= x_60 x_49)) (?v_8 (= x_61 x_50)) (?v_6 (= x_62 x_51)) (?v_0 (+ x_7 2)) (?v_11 (+ x_7 1)) (?v_34 (= x_2 (- 1))) (?v_43 (= x_45 (- 1))) (?v_44 (= x_34 (- 1))) (?v_45 (= x_23 (- 1))) (?v_46 (= x_9 (- 1)))) (and (and (and (and (and (and (and (and (and (and (and (and (and (and (and (and (and (and (and (and (and (and (and (and (and (not (<= x_7 0)) (= x_0 0)) (= x_1 0)) ?v_34) (= x_3 0)) (= x_64 (select x_4 x_2))) (= x_5 x_64)) (= x_8 ?v_0)) (= x_65 (select x_16 x_9))) (= x_20 x_65)) (= x_22 ?v_0)) (= x_66 (select x_28 x_23))) (= x_31 x_66)) (= x_33 ?v_0)) (= x_67 (select x_39 x_34))) (= x_42 x_67)) (= x_44 ?v_0)) (= x_68 (select x_50 x_45))) (= x_53 x_68)) (= x_55 ?v_0)) (or (or (or (or (and (and (and (and (and (and (and (and (and (= x_63 0) (< x_43 x_7)) ?v_1) (= x_60 (+ x_49 1))) (= x_56 x_48)) (= x_59 (+ x_48 1))) (= x_57 (store x_46 x_48 x_43))) ?v_2) (= x_61 (store x_50 x_48 x_45))) ?v_6) (and (and (and (and (and (and (and (and (and (and (= x_63 1) (= x_43 x_7)) (not ?v_43)) (= x_62 x_45)) (= x_56 x_53)) ?v_1) ?v_3) ?v_2) ?v_4) ?v_5) ?v_8)) (and (and (and (and (and (and (and (and (and (= x_63 2) (= x_43 ?v_11)) ?v_1) ?v_7) ?v_3) ?v_2) ?v_4) ?v_5) (= x_61 (store x_50 x_51 x_53))) ?v_6)) (and (and (and (and (and (and (and (and (and (= x_63 3) (= x_43 x_55)) ?v_1) ?v_7) ?v_3) ?v_2) ?v_4) ?v_5) (= x_61 (store x_50 x_45 x_51))) ?v_6)) (and (and (and (and (and (and (and (and (and (= x_63 4) (not (<= x_43 x_55))) ?v_7) ?v_3) ?v_2) ?v_4) ?v_5) ?v_8) ?v_6) (= x_54 x_43)))) (or (or (or (or (and (and (and (and (and (and (and (and (and (= x_52 0) (< x_32 x_7)) ?v_9) (= x_49 (+ x_38 1))) (= x_45 x_37)) (= x_48 (+ x_37 1))) (= x_46 (store x_35 x_37 x_32))) ?v_10) (= x_50 (store x_39 x_37 x_34))) ?v_15) (and (and (and (and (and (and (and (and (and (and (= x_52 1) (= x_32 x_7)) (not ?v_44)) (= x_51 x_34)) (= x_45 x_42)) ?v_9) ?v_12) ?v_10) ?v_13) ?v_14) ?v_17)) (and (and (and (and (and (and (and (and (and (= x_52 2) (= x_32 ?v_11)) ?v_9) ?v_16) ?v_12) ?v_10) ?v_13) ?v_14) (= x_50 (store x_39 x_40 x_42))) ?v_15)) (and (and (and (and (and (and (and (and (and (= x_52 3) (= x_32 x_44)) ?v_9) ?v_16) ?v_12) ?v_10) ?v_13) ?v_14) (= x_50 (store x_39 x_34 x_40))) ?v_15)) (and (and (and (and (and (and (and (and (and (= x_52 4) (not (<= x_32 x_44))) ?v_16) ?v_12) ?v_10) ?v_13) ?v_14) ?v_17) ?v_15) (= x_43 x_32)))) (or (or (or (or (and (and (and (and (and (and (and (and (and (= x_41 0) (< x_21 x_7)) ?v_18) (= x_38 (+ x_27 1))) (= x_34 x_26)) (= x_37 (+ x_26 1))) (= x_35 (store x_24 x_26 x_21))) ?v_19) (= x_39 (store x_28 x_26 x_23))) ?v_23) (and (and (and (and (and (and (and (and (and (and (= x_41 1) (= x_21 x_7)) (not ?v_45)) (= x_40 x_23)) (= x_34 x_31)) ?v_18) ?v_20) ?v_19) ?v_21) ?v_22) ?v_25)) (and (and (and (and (and (and (and (and (and (= x_41 2) (= x_21 ?v_11)) ?v_18) ?v_24) ?v_20) ?v_19) ?v_21) ?v_22) (= x_39 (store x_28 x_29 x_31))) ?v_23)) (and (and (and (and (and (and (and (and (and (= x_41 3) (= x_21 x_33)) ?v_18) ?v_24) ?v_20) ?v_19) ?v_21) ?v_22) (= x_39 (store x_28 x_23 x_29))) ?v_23)) (and (and (and (and (and (and (and (and (and (= x_41 4) (not (<= x_21 x_33))) ?v_24) ?v_20) ?v_19) ?v_21) ?v_22) ?v_25) ?v_23) (= x_32 x_21)))) (or (or (or (or (and (and (and (and (and (and (and (and (and (= x_30 0) (< x_6 x_7)) ?v_26) (= x_27 (+ x_15 1))) (= x_23 x_14)) (= x_26 (+ x_14 1))) (= x_24 (store x_10 x_14 x_6))) ?v_27) (= x_28 (store x_16 x_14 x_9))) ?v_31) (and (and (and (and (and (and (and (and (and (and (= x_30 1) (= x_6 x_7)) (not ?v_46)) (= x_29 x_9)) (= x_23 x_20)) ?v_26) ?v_28) ?v_27) ?v_29) ?v_30) ?v_33)) (and (and (and (and (and (and (and (and (and (= x_30 2) (= x_6 ?v_11)) ?v_26) ?v_32) ?v_28) ?v_27) ?v_29) ?v_30) (= x_28 (store x_16 x_17 x_20))) ?v_31)) (and (and (and (and (and (and (and (and (and (= x_30 3) (= x_6 x_22)) ?v_26) ?v_32) ?v_28) ?v_27) ?v_29) ?v_30) (= x_28 (store x_16 x_9 x_17))) ?v_31)) (and (and (and (and (and (and (and (and (and (= x_30 4) (not (<= x_6 x_22))) ?v_32) ?v_28) ?v_27) ?v_29) ?v_30) ?v_33) ?v_31) (= x_21 x_6)))) (or (or (or (or (and (and (and (and (and (and (and (and (and (= x_19 0) (< x_0 x_7)) ?v_35) (= x_15 (+ x_3 1))) (= x_9 x_1)) (= x_14 (+ x_1 1))) (= x_10 (store x_11 x_1 x_0))) ?v_36) (= x_16 (store x_4 x_1 x_2))) ?v_40) (and (and (and (and (and (and (and (and (and (and (= x_19 1) (= x_0 x_7)) (not ?v_34)) (= x_17 x_2)) (= x_9 x_5)) ?v_35) ?v_37) ?v_36) ?v_38) ?v_39) ?v_42)) (and (and (and (and (and (and (and (and (and (= x_19 2) (= x_0 ?v_11)) ?v_35) ?v_41) ?v_37) ?v_36) ?v_38) ?v_39) (= x_16 (store x_4 x_18 x_5))) ?v_40)) (and (and (and (and (and (and (and (and (and (= x_19 3) (= x_0 x_8)) ?v_35) ?v_41) ?v_37) ?v_36) ?v_38) ?v_39) (= x_16 (store x_4 x_2 x_18))) ?v_40)) (and (and (and (and (and (and (and (and (and (= x_19 4) (not (<= x_0 x_8))) ?v_41) ?v_37) ?v_36) ?v_38) ?v_39) ?v_42) ?v_40) (= x_6 x_0)))) (or (or (or (or (or (and (not (<= x_54 0)) (= x_56 (- 1))) (and (not (<= x_43 0)) ?v_43)) (and (not (<= x_32 0)) ?v_44)) (and (not (<= x_21 0)) ?v_45)) (and (not (<= x_6 0)) ?v_46)) (and (not (<= x_0 0)) ?v_34)))))
(check-sat)
(exit)
